data/rand/rand_077.gr
p tdp 15 52
1 2
1 5
1 6
1 7
1 8
1 10
1 11
1 13
2 4
2 11
2 13
2 14
3 4
3 8
3 9
3 10
3 11
3 15
4 6
4 7
4 8
4 9
4 10
4 13
5 7
5 8
5 9
5 12
5 14
6 7
6 8
6 9
6 10
6 14
7 10
7 11
7 12
7 13
7 14
8 9
8 13
9 10
9 12
9 13
9 14
10 11
10 13
10 15
11 12
11 15
13 15
14 15
