solutions/best/rand/rand_077.sol
11
0
1
15
2
7
7
14
11
8
9
4
5
15
10
7
